words_hard_train/1912.qaiger
aag 55 13 0 1 42
2
4
8
12
16
20
24
28
38
44
58
80
88
110
6 2 4
10 6 8
14 10 12
18 14 16
22 19 20
26 22 25
30 29 5
32 31 7
34 28 4
36 35 3
40 36 39
42 32 41
46 43 45
48 7 9
50 49 11
52 47 50
54 11 13
56 55 15
60 56 58
62 53 61
64 42 44
66 62 65
68 57 59
70 67 69
72 26 71
74 15 17
76 75 19
78 72 77
82 79 80
84 76 70
86 85 81
90 87 88
92 83 91
94 18 88
96 92 95
98 24 21
100 98 80
102 70 100
104 102 94
106 99 81
108 105 107
110 97 108
i0 1 x1[0]
i1 1 x1[1]
i2 1 x1[2]
i3 1 x1[3]
i4 1 x1[4]
i5 1 x1[7]
i6 1 x1[6]
i7 2 y2[4]
i8 2 y2[3]
i9 2 y2[5]
i10 2 y2[6]
i11 2 y2[7]
i12 1 x1[5]
o0 bv[0]
c
simplified
  <=
    invert
      1 x1
    subtract
      >> 3
        2 y2
      reverse
        1
