words_hard_train/1912.qaiger.qdimacs
p cnf 55 127
a 1 2 4 6 8 10 12 44 0
e 3 5 7 9 11 13 14 15 16 17 18 19 20 21 22 23 24 25 26 27 28 29 30 31 32 33 34 35 36 37 38 39 40 41 42 43 45 46 47 48 49 50 51 52 53 54 55 0
-1 -2 3 0
1 -3 0
2 -3 0
-3 -4 5 0
3 -5 0
4 -5 0
-5 -6 7 0
5 -7 0
6 -7 0
-7 -8 9 0
7 -9 0
8 -9 0
9 -10 11 0
-9 -11 0
10 -11 0
-11 12 13 0
11 -13 0
-12 -13 0
14 2 15 0
-14 -15 0
-2 -15 0
15 3 16 0
-15 -16 0
-3 -16 0
-14 -2 17 0
14 -17 0
2 -17 0
17 1 18 0
-17 -18 0
-1 -18 0
-18 19 20 0
18 -20 0
-19 -20 0
-16 20 21 0
16 -21 0
-20 -21 0
21 22 23 0
-21 -23 0
-22 -23 0
3 4 24 0
-3 -24 0
-4 -24 0
24 5 25 0
-24 -25 0
-5 -25 0
23 -25 26 0
-23 -26 0
25 -26 0
5 6 27 0
-5 -27 0
-6 -27 0
27 7 28 0
-27 -28 0
-7 -28 0
-28 -29 30 0
28 -30 0
29 -30 0
26 30 31 0
-26 -31 0
-30 -31 0
-21 -22 32 0
21 -32 0
22 -32 0
-31 32 33 0
31 -33 0
-32 -33 0
28 29 34 0
-28 -34 0
-29 -34 0
33 34 35 0
-33 -35 0
-34 -35 0
-13 35 36 0
13 -36 0
-35 -36 0
7 8 37 0
-7 -37 0
-8 -37 0
37 9 38 0
-37 -38 0
-9 -38 0
-36 38 39 0
36 -39 0
-38 -39 0
39 -40 41 0
-39 -41 0
40 -41 0
-38 -35 42 0
38 -42 0
35 -42 0
42 40 43 0
-42 -43 0
-40 -43 0
43 -44 45 0
-43 -45 0
44 -45 0
41 45 46 0
-41 -46 0
-45 -46 0
-9 -44 47 0
9 -47 0
44 -47 0
-46 47 48 0
46 -48 0
-47 -48 0
-12 10 49 0
12 -49 0
-10 -49 0
-49 -40 50 0
49 -50 0
40 -50 0
-35 -50 51 0
35 -51 0
50 -51 0
-51 -47 52 0
51 -52 0
47 -52 0
49 40 53 0
-49 -53 0
-40 -53 0
52 53 54 0
-52 -54 0
-53 -54 0
48 -54 55 0
-48 -55 0
54 -55 0
55 0
